100
32
26
8
3
3
7
8
28
3
16
17
5
10
9
15
10
2
8
2
1
10
10
1
11
8
3
1
16
1
1
1
4
2
1
3
19
3
2
4
1
18
1
20
3
2
3
1
2
2
2
5
2
17
2
1
4
4
1
2
1
2
18
1
2
2
6
4
17
1
2
8
1
3
17
2
1
3
1
1
2
1
6
1
18
1
1
4
1
1
3
2
17
1
2
1
2
1
1
5
1
4